// --------------------------------------------------------------------------
// Licensed Materials - Property of IBM
//
// 5725-A06 5725-A29 5724-Y48 5724-Y49 5724-Y54 5724-Y55
// Copyright IBM Corporation 1998, 2013. All Rights Reserved.
//
// Note to U.S. Government Users Restricted Rights:
// Use, duplication or disclosure restricted by GSA ADP Schedule
// Contract with IBM Corp.
// --------------------------------------------------------------------------

NbTasks = 122;
NbRsrcs = 4;

Capacity = [ 13, 16, 12, 17 ]; 

Tasks = { 
  < 1, 0, [ 0, 0, 0, 0 ], { 2, 3, 4 } >,
  < 2, 10, [ 0, 0, 1, 0 ], { 10, 14, 28 } >,
  < 3, 10, [ 3, 0, 0, 0 ], { 6, 7, 17 } >,
  < 4, 6, [ 0, 0, 0, 9 ], { 5, 68 } >,
  < 5, 6, [ 1, 0, 0, 0 ], { 13, 29 } >,
  < 6, 7, [ 0, 0, 8, 0 ], { 8, 16, 42 } >,
  < 7, 5, [ 0, 7, 0, 0 ], { 18, 19, 38 } >,
  < 8, 3, [ 7, 0, 0, 0 ], { 9, 49, 51 } >,
  < 9, 7, [ 0, 2, 0, 0 ], { 12, 26, 41 } >,
  < 10, 1, [ 0, 0, 1, 0 ], { 11, 15, 86 } >,
  < 11, 5, [ 0, 0, 1, 0 ], { 36, 44, 54 } >,
  < 12, 8, [ 0, 0, 0, 9 ], { 22, 23, 53 } >,
  < 13, 2, [ 0, 4, 0, 0 ], { 31, 40, 71 } >,
  < 14, 5, [ 0, 9, 0, 0 ], { 27 } >,
  < 15, 10, [ 0, 0, 0, 9 ], { 20, 33 } >,
  < 16, 4, [ 0, 1, 0, 0 ], { 25, 58, 60 } >,
  < 17, 1, [ 10, 0, 0, 0 ], { 47, 79, 102 } >,
  < 18, 3, [ 0, 8, 0, 0 ], { 21, 26 } >,
  < 19, 8, [ 8, 0, 0, 0 ], { 92 } >,
  < 20, 6, [ 0, 6, 0, 0 ], { 24 } >,
  < 21, 5, [ 0, 0, 10, 0 ], { 30, 39, 81 } >,
  < 22, 5, [ 0, 0, 0, 10 ], { 66, 99, 118 } >,
  < 23, 9, [ 10, 0, 0, 0 ], { 43 } >,
  < 24, 1, [ 2, 0, 0, 0 ], { 30, 31, 57 } >,
  < 25, 2, [ 8, 0, 0, 0 ], { 80 } >,
  < 26, 6, [ 0, 10, 0, 0 ], { 34, 46, 52 } >,
  < 27, 10, [ 2, 0, 0, 0 ], { 32, 60 } >,
  < 28, 1, [ 0, 0, 0, 5 ], { 37, 87 } >,
  < 29, 2, [ 8, 0, 0, 0 ], { 106 } >,
  < 30, 10, [ 2, 0, 0, 0 ], { 110 } >,
  < 31, 6, [ 0, 0, 0, 4 ], { 59 } >,
  < 32, 5, [ 0, 0, 0, 10 ], { 35, 86 } >,
  < 33, 6, [ 0, 0, 0, 10 ], { 56, 74, 97 } >,
  < 34, 5, [ 0, 0, 3, 0 ], { 37, 88 } >,
  < 35, 1, [ 9, 0, 0, 0 ], { 65, 104 } >,
  < 36, 10, [ 0, 8, 0, 0 ], { 50, 55 } >,
  < 37, 3, [ 0, 0, 1, 0 ], { 75 } >,
  < 38, 10, [ 0, 0, 0, 5 ], { 50, 64, 101 } >,
  < 39, 7, [ 0, 0, 0, 9 ], { 66, 68 } >,
  < 40, 7, [ 0, 0, 0, 8 ], { 63, 70 } >,
  < 41, 10, [ 0, 0, 7, 0 ], { 45, 83 } >,
  < 42, 5, [ 4, 0, 0, 0 ], { 72 } >,
  < 43, 10, [ 0, 0, 0, 8 ], { 57, 65 } >,
  < 44, 4, [ 0, 0, 0, 9 ], { 49, 103, 121 } >,
  < 45, 4, [ 0, 0, 3, 0 ], { 60, 76, 79 } >,
  < 46, 2, [ 8, 0, 0, 0 ], { 48, 113 } >,
  < 47, 5, [ 0, 3, 0, 0 ], { 89, 109 } >,
  < 48, 8, [ 0, 10, 0, 0 ], { 98 } >,
  < 49, 4, [ 0, 0, 0, 2 ], { 62, 69 } >,
  < 50, 3, [ 0, 0, 5, 0 ], { 83, 94, 97 } >,
  < 51, 4, [ 0, 0, 1, 0 ], { 105, 120 } >,
  < 52, 1, [ 3, 0, 0, 0 ], { 65 } >,
  < 53, 9, [ 0, 10, 0, 0 ], { 54, 105, 112 } >,
  < 54, 1, [ 4, 0, 0, 0 ], { 88, 109 } >,
  < 55, 9, [ 2, 0, 0, 0 ], { 57, 61, 66 } >,
  < 56, 10, [ 0, 10, 0, 0 ], { 81, 82, 105 } >,
  < 57, 6, [ 0, 0, 9, 0 ], { 90 } >,
  < 58, 6, [ 0, 0, 0, 2 ], { 89 } >,
  < 59, 4, [ 0, 3, 0, 0 ], { 78 } >,
  < 60, 8, [ 0, 4, 0, 0 ], { 94 } >,
  < 61, 8, [ 0, 6, 0, 0 ], { 84, 112 } >,
  < 62, 6, [ 0, 0, 0, 2 ], { 67, 91 } >,
  < 63, 9, [ 1, 0, 0, 0 ], { 77 } >,
  < 64, 5, [ 9, 0, 0, 0 ], { 94, 117 } >,
  < 65, 10, [ 0, 6, 0, 0 ], { 95 } >,
  < 66, 10, [ 0, 0, 0, 5 ], { 80 } >,
  < 67, 2, [ 0, 9, 0, 0 ], { 76, 87, 96 } >,
  < 68, 7, [ 0, 1, 0, 0 ], { 77 } >,
  < 69, 3, [ 0, 0, 0, 6 ], { 71, 80 } >,
  < 70, 2, [ 0, 0, 0, 7 ], { 73, 86, 100 } >,
  < 71, 3, [ 0, 0, 0, 10 ], { 79, 90, 100 } >,
  < 72, 8, [ 0, 0, 2, 0 ], { 78, 85, 92 } >,
  < 73, 9, [ 9, 0, 0, 0 ], { 81, 88, 118 } >,
  < 74, 4, [ 1, 0, 0, 0 ], { 82, 107, 119 } >,
  < 75, 4, [ 0, 0, 3, 0 ], { 84, 90, 106 } >,
  < 76, 4, [ 0, 0, 0, 9 ], { 101 } >,
  < 77, 4, [ 0, 0, 0, 10 ], { 85, 93 } >,
  < 78, 2, [ 0, 0, 6, 0 ], { 87, 96, 111 } >,
  < 79, 4, [ 0, 8, 0, 0 ], { 93 } >,
  < 80, 9, [ 0, 0, 5, 0 ], { 83, 108 } >,
  < 81, 8, [ 0, 2, 0, 0 ], { 102 } >,
  < 82, 2, [ 0, 1, 0, 0 ], { 84 } >,
  < 83, 6, [ 0, 0, 0, 7 ], { 100 } >,
  < 84, 2, [ 0, 4, 0, 0 ], { 85 } >,
  < 85, 9, [ 0, 1, 0, 0 ], { 109 } >,
  < 86, 4, [ 0, 6, 0, 0 ], { 99, 108, 117 } >,
  < 87, 5, [ 0, 0, 2, 0 ], { 115 } >,
  < 88, 9, [ 0, 3, 0, 0 ], { 116 } >,
  < 89, 3, [ 0, 0, 5, 0 ], { 104 } >,
  < 90, 6, [ 0, 0, 0, 10 ], { 91 } >,
  < 91, 5, [ 0, 0, 0, 10 ], { 112 } >,
  < 92, 9, [ 4, 0, 0, 0 ], { 93, 117 } >,
  < 93, 4, [ 7, 0, 0, 0 ], { 96, 98 } >,
  < 94, 2, [ 0, 1, 0, 0 ], { 99, 103 } >,
  < 95, 2, [ 8, 0, 0, 0 ], { 101, 107 } >,
  < 96, 2, [ 0, 0, 6, 0 ], { 115 } >,
  < 97, 5, [ 0, 0, 0, 3 ], { 106 } >,
  < 98, 6, [ 0, 0, 4, 0 ], { 108 } >,
  < 99, 6, [ 0, 7, 0, 0 ], { 104 } >,
  < 100, 9, [ 0, 2, 0, 0 ], { 119 } >,
  < 101, 7, [ 0, 0, 7, 0 ], { 111 } >,
  < 102, 7, [ 0, 5, 0, 0 ], { 103 } >,
  < 103, 3, [ 0, 0, 1, 0 ], { 116 } >,
  < 104, 3, [ 0, 0, 0, 10 ], { 114 } >,
  < 105, 10, [ 0, 3, 0, 0 ], { 107, 119 } >,
  < 106, 4, [ 8, 0, 0, 0 ], { 113 } >,
  < 107, 4, [ 9, 0, 0, 0 ], { 118 } >,
  < 108, 2, [ 0, 6, 0, 0 ], { 110, 116 } >,
  < 109, 3, [ 0, 0, 0, 1 ], { 110 } >,
  < 110, 3, [ 0, 0, 0, 2 ], { 111 } >,
  < 111, 4, [ 5, 0, 0, 0 ], { 114 } >,
  < 112, 2, [ 0, 0, 0, 7 ], { 113 } >,
  < 113, 2, [ 10, 0, 0, 0 ], { 114 } >,
  < 114, 10, [ 0, 1, 0, 0 ], { 115 } >,
  < 115, 4, [ 0, 0, 1, 0 ], { 120 } >,
  < 116, 8, [ 1, 0, 0, 0 ], { 120 } >,
  < 117, 2, [ 0, 0, 0, 3 ], { 121 } >,
  < 118, 10, [ 0, 0, 0, 1 ], { 121 } >,
  < 119, 1, [ 0, 0, 0, 10 ], { 122 } >,
  < 120, 2, [ 2, 0, 0, 0 ], { 122 } >,
  < 121, 6, [ 0, 2, 0, 0 ], { 122 } >,
  < 122, 0, [ 0, 0, 0, 0 ], {  } >
 }; 

